benchmarks/bfuzz0/5450197956159809627919372129515.smt2
(set-logic QF_FP)
(declare-const x0 (_ FloatingPoint 11 53))
(declare-const x1 (_ FloatingPoint 11 53))
(declare-const x2 (_ FloatingPoint 11 53))
(declare-const x3 (_ FloatingPoint 11 53))
(declare-const x4 (_ FloatingPoint 11 53))
(declare-const x5 (_ FloatingPoint 11 53))
(declare-const x6 (_ FloatingPoint 11 53))
(declare-const x7 (_ FloatingPoint 11 53))
(declare-const x8 (_ FloatingPoint 11 53))
(declare-const x9 (_ FloatingPoint 11 53))
(declare-const x10 (_ FloatingPoint 11 53))
(declare-const x11 (_ FloatingPoint 11 53))
(declare-const x12 (_ FloatingPoint 11 53))
(declare-const x13 (_ FloatingPoint 11 53))
(declare-const x14 (_ FloatingPoint 11 53))
(declare-const x15 (_ FloatingPoint 11 53))
(declare-const x16 (_ FloatingPoint 11 53))
(declare-const x17 (_ FloatingPoint 11 53))
(assert (fp.gt (fp.add RNE (fp.div RNE (fp.mul RNE x8 x3) (fp.div RNE x5 x5)) (fp.sub RNE (fp.add RNE x5 x7) (fp.add RNE x13 x16))) (fp.add RNE (fp.mul RNE (fp.sub RNE x12 x16) (fp.add RNE x10 x7)) (fp.mul RNE (fp.sub RNE x17 x16) (fp.sub RNE x10 x0)))))
(check-sat)
