db/data/5450197956159809627919372129515.z3.out
sat
-------------------
2150.455086104
